qbf_easy_train/easy_2879_SAT.qdimacs
p cnf 20 46
a 2 3 0
e 1 4 5 6 7 8 9 10 11 12 13 14 15 16 17 18 19 20 0
-1 2 -3 0
1 -2 -3 0
-1 -2 3 0
1 2 3 0
-3 2 -4 0
3 -2 -4 0
-3 -2 4 0
3 2 4 0
5 6 -7 0
-5 -6 -7 0
5 -6 7 0
-5 6 7 0
-8 4 0
-8 7 0
-4 -7 8 0
-5 9 -10 0
5 -9 -10 0
-5 -9 10 0
5 9 10 0
-13 -3 0
-13 12 0
3 -12 13 0
14 -11 0
14 13 0
11 -13 -14 0
-15 -14 0
-15 3 0
14 -3 15 0
-16 -10 0
-16 15 0
10 -15 16 0
-17 8 0
-17 -16 0
-8 16 17 0
-19 -18 0
-19 5 0
18 -5 19 0
17 19 -20 0
-17 -19 -20 0
17 -19 20 0
-17 19 20 0
-2 9 10 -1 0
-13 -20 9 -4 12 7 -17 0
7 18 17 2 6 9 0
-4 5 6 0
20 0
