sat_easy_train/easy_2879_SAT.dimacs
p cnf 141 479
4 2 0
4 -3 0
-2 3 -4 0
-5 -1 0
-5 4 0
1 -4 5 0
-8 -6 0
-8 7 0
6 -7 8 0
9 5 0
9 8 0
-5 -8 -9 0
12 -10 0
12 11 0
10 -11 -12 0
14 12 0
14 -13 0
-12 13 -14 0
16 -15 0
16 -10 0
15 10 -16 0
17 14 0
17 -16 0
-14 16 -17 0
-19 -18 0
-19 -18 0
18 19 0
20 -12 0
20 -18 0
12 18 -20 0
-20 -21 -22 0
20 21 -22 0
-20 21 22 0
20 -21 22 0
-23 -12 0
-23 -22 0
12 22 23 0
-25 15 0
-25 -2 0
-15 2 25 0
26 24 0
26 25 0
-24 -25 -26 0
-15 -26 -27 0
15 26 -27 0
-15 26 27 0
15 -26 27 0
29 -27 0
29 -28 0
27 28 -29 0
-30 23 0
-30 29 0
-23 -29 30 0
-31 -3 0
-31 -14 0
3 14 31 0
-32 30 0
-32 31 0
-30 -31 32 0
19 -32 -33 0
-19 32 -33 0
19 32 33 0
-19 -32 33 0
34 -17 0
34 -33 0
17 33 -34 0
-35 -9 0
-35 -34 0
9 34 35 0
-15 -36 -37 0
15 36 -37 0
-15 36 37 0
15 -36 37 0
-38 -37 0
-38 25 0
37 -25 38 0
-39 2 0
-39 13 0
-2 -13 39 0
-38 -39 -40 0
38 39 -40 0
-38 39 40 0
38 -39 40 0
42 -41 0
42 7 0
41 -7 -42 0
40 -42 -43 0
-40 42 -43 0
40 42 43 0
-40 -42 43 0
-44 -35 0
-44 43 0
35 -43 44 0
45 -36 0
45 10 0
36 -10 -45 0
46 -22 0
46 -45 0
22 45 -46 0
38 46 -47 0
-38 -46 -47 0
38 -46 47 0
-38 46 47 0
-21 -1 -48 0
21 1 -48 0
-21 1 48 0
21 -1 48 0
36 -48 -49 0
-36 48 -49 0
36 48 49 0
-36 -48 49 0
50 -1 0
50 -49 0
1 49 -50 0
36 -12 -51 0
-36 12 -51 0
36 12 51 0
-36 -12 51 0
-50 51 -52 0
50 -51 -52 0
-50 -51 52 0
50 51 52 0
53 -52 0
53 -1 0
52 1 -53 0
-54 49 0
-54 -53 0
-49 53 54 0
55 51 -56 0
-55 -51 -56 0
55 -51 56 0
-55 51 56 0
57 54 0
57 56 0
-54 -56 -57 0
-13 -28 -58 0
13 28 -58 0
-13 28 58 0
13 -28 58 0
-59 58 0
-59 -22 0
-58 22 59 0
-48 -14 -60 0
48 14 -60 0
-48 14 60 0
48 -14 60 0
-61 60 0
-61 -15 0
-60 15 61 0
-61 36 -62 0
61 -36 -62 0
-61 -36 62 0
61 36 62 0
59 -62 -63 0
-59 62 -63 0
59 62 63 0
-59 -62 63 0
12 -21 -64 0
-12 21 -64 0
12 21 64 0
-12 -21 64 0
-12 25 -65 0
12 -25 -65 0
-12 -25 65 0
12 25 65 0
-66 -65 0
-66 -28 0
65 28 66 0
-66 40 -67 0
66 -40 -67 0
-66 -40 67 0
66 40 67 0
64 -67 -68 0
-64 67 -68 0
64 67 68 0
-64 -67 68 0
-63 68 -69 0
63 -68 -69 0
-63 -68 69 0
63 68 69 0
-70 -7 0
-70 -28 0
7 28 70 0
71 -12 0
71 -70 0
12 70 -71 0
-72 49 0
-72 -26 0
-49 26 72 0
73 -39 0
73 21 0
39 -21 -73 0
-73 -24 -74 0
73 24 -74 0
-73 24 74 0
73 -24 74 0
-75 -72 0
-75 -74 0
72 74 75 0
76 75 0
76 -28 0
-75 28 -76 0
-77 71 0
-77 -76 0
-71 76 77 0
-1 4 -78 0
1 -4 -78 0
-1 -4 78 0
1 4 78 0
79 77 0
79 -78 0
-77 78 -79 0
-80 3 0
-80 16 0
-3 -16 80 0
-81 49 0
-81 80 0
-49 -80 81 0
82 13 0
82 -41 0
-13 41 -82 0
83 13 0
83 82 0
-13 -82 -83 0
-84 -45 0
-84 25 0
45 -25 84 0
-83 -84 -85 0
83 84 -85 0
-83 84 85 0
83 -84 85 0
3 86 0
-3 86 0
-85 86 -87 0
85 -86 -87 0
-85 -86 87 0
85 86 87 0
88 -81 0
88 -87 0
81 87 -88 0
89 79 0
89 -88 0
-79 88 -89 0
90 -69 0
90 89 0
69 -89 -90 0
-91 -57 0
-91 90 0
57 -90 91 0
92 -47 0
92 91 0
47 -91 -92 0
93 58 0
93 82 0
-58 -82 -93 0
-93 1 -94 0
93 -1 -94 0
-93 -1 94 0
93 1 94 0
4 -13 -95 0
-4 13 -95 0
4 13 95 0
-4 -13 95 0
96 94 0
96 -95 0
-94 95 -96 0
45 2 -97 0
-45 -2 -97 0
45 -2 97 0
-45 2 97 0
98 50 0
98 -39 0
-50 39 -98 0
97 -98 -99 0
-97 98 -99 0
97 98 99 0
-97 -98 99 0
-100 -96 0
-100 99 0
96 -99 100 0
-101 6 0
-101 -11 0
-6 11 101 0
-100 101 -102 0
100 -101 -102 0
-100 -101 102 0
100 101 102 0
-103 36 0
-103 -20 0
-36 20 103 0
-104 -41 0
-104 -28 0
41 28 104 0
-105 -41 0
-105 104 0
41 -104 105 0
106 105 0
106 13 0
-105 -13 -106 0
-107 29 0
-107 106 0
-29 -106 107 0
108 103 0
108 107 0
-103 -107 -108 0
-109 102 0
-109 -108 0
-102 108 109 0
110 18 0
110 3 0
-18 -3 -110 0
74 -46 -111 0
-74 46 -111 0
74 46 111 0
-74 -46 111 0
110 111 -112 0
-110 -111 -112 0
110 -111 112 0
-110 111 112 0
-113 23 0
-113 -46 0
-23 46 113 0
73 -15 -114 0
-73 15 -114 0
73 15 114 0
-73 -15 114 0
115 18 0
115 -25 0
-18 25 -115 0
-116 -114 0
-116 -115 0
114 115 116 0
117 15 0
117 116 0
-15 -116 -117 0
118 113 0
118 -117 0
-113 117 -118 0
119 112 0
119 118 0
-112 -118 -119 0
-120 26 0
-120 6 0
-26 -6 120 0
-121 97 0
-121 -120 0
-97 120 121 0
122 -10 0
122 -13 0
10 13 -122 0
121 122 -123 0
-121 -122 -123 0
121 -122 123 0
-121 122 123 0
-124 -49 0
-124 18 0
49 -18 124 0
125 36 0
125 -124 0
-36 124 -125 0
-126 4 0
-126 49 0
-4 -49 126 0
-127 23 0
-127 126 0
-23 -126 127 0
-125 -127 -128 0
125 127 -128 0
-125 127 128 0
125 -127 128 0
31 65 -129 0
-31 -65 -129 0
31 -65 129 0
-31 65 129 0
-130 128 0
-130 -129 0
-128 129 130 0
131 123 0
131 130 0
-123 -130 -131 0
119 131 -132 0
-119 -131 -132 0
119 -131 132 0
-119 131 132 0
-49 28 -133 0
49 -28 -133 0
-49 -28 133 0
49 28 133 0
134 132 0
134 133 0
-132 -133 -134 0
-109 134 -135 0
109 -134 -135 0
-109 -134 135 0
109 134 135 0
38 11 -136 0
-38 -11 -136 0
38 -11 136 0
-38 11 136 0
-36 24 -137 0
36 -24 -137 0
-36 -24 137 0
36 24 137 0
-138 136 0
-138 -137 0
-136 137 138 0
-139 -135 0
-139 -138 0
135 138 139 0
-92 -139 -140 0
92 139 -140 0
-92 139 140 0
92 -139 140 0
-141 -44 0
-141 -140 0
44 140 141 0
6 -47 137 -133 0
114 -46 7 0
12 -42 82 11 0
-16 -56 -128 93 26 0
21 -64 120 -79 69 0
-124 135 -107 138 113 0
124 -97 -14 -61 9 -117 0
113 -125 7 30 -127 -129 0
12 -122 0
72 -18 0
-72 116 81 115 -61 -93 0
-59 104 0
-119 135 32 33 0
110 -72 61 79 0
84 -103 -14 82 108 0
-110 80 52 40 115 0
-132 -56 -24 74 0
-77 45 71 0
-5 61 0
-106 124 -68 107 0
-89 -16 98 -43 0
66 -93 0
-111 8 -140 22 125 -80 0
104 -114 -56 -33 42 -35 0
-7 -11 -16 0
-57 32 -101 41 0
-92 70 7 -48 -138 0
87 -35 -127 86 0
-63 -134 0
58 -81 95 82 -140 110 0
-45 -120 122 -35 -40 0
36 122 -19 10 0
-98 122 0
88 -97 -2 62 -54 0
-97 136 -47 0
138 -14 102 0
-129 46 -36 -133 -42 -102 0
74 -68 -2 -58 0
39 -102 0
-27 136 0
122 136 0
-108 -137 114 0
8 -59 -86 120 53 0
51 -90 27 -102 132 0
-84 -74 23 -38 110 -77 0
-35 -104 0
-74 -21 106 -108 23 -68 0
-121 -35 -21 -50 5 0
-18 -31 -68 -8 120 0
-135 14 -23 -56 0
127 21 -134 3 112 0
-46 15 -32 0
-78 17 110 0
-102 -60 -61 18 -93 -84 0
-42 -16 -87 69 -34 0
127 16 26 -122 4 0
73 129 -85 1 -130 0
37 83 -71 28 0
29 4 21 -25 0
-4 -71 -121 83 0
123 -70 -31 61 -67 0
69 -18 58 -72 120 0
141 0
